NAME : instances/clustered-mixed-tsp/instance-51.tsp
COMMENT : No Comment
TYPE : TSP
DIMENSION: 46
EDGE_WEIGHT_TYPE : EUC_2D
NODE_COORD_SECTION
1 1040 1867 
2 1001 3087 
3 956 816 
4 55 2507 
5 2315 2588 
6 1187 2940 
7 1221 2778 
8 2894 148 
9 1050 3021 
10 1036 3081 
11 1177 2998 
12 2877 153 
13 929 600 
14 2714 622 
15 1238 3063 
16 2732 111 
17 1062 1052 
18 2973 705 
19 901 980 
20 787 950 
21 407 2253 
22 42 2358 
23 852 656 
24 2159 2380 
25 356 2602 
26 1091 2841 
27 1163 2820 
28 836 2857 
29 2601 527 
30 766 841 
31 2240 2770 
32 2915 735 
33 2981 918 
34 955 3005 
35 1016 1747 
36 983 2751 
37 2734 624 
38 868 2952 
39 985 1586 
40 978 3150 
41 764 693 
42 2907 241 
43 3055 937 
44 2788 1090 
45 808 1007 
46 817 1871 
EOF
